c description: Tseitin formula on , with odd charge
c generator: CNFgen (0.9.0)
c copyright: (C) 2012-2020 Massimo Lauria <massimo.lauria@uniroma1.it>
c url: https://massimolauria.net/cnfgen
c
p cnf 40 366
1 2 3 4 0
1 2 -3 -4 0
1 -2 3 -4 0
1 -2 -3 4 0
-1 2 3 -4 0
-1 2 -3 4 0
-1 -2 3 4 0
-1 -2 -3 -4 0
1 5 -6 0
1 -5 6 0
-1 5 6 0
-1 -5 -6 0
7 8 9 -10 0
7 8 -9 10 0
7 -8 9 10 0
7 -8 -9 -10 0
-7 8 9 10 0
-7 8 -9 -10 0
-7 -8 9 -10 0
-7 -8 -9 10 0
11 12 -13 0
11 -12 13 0
-11 12 13 0
-11 -12 -13 0
7 14 15 16 -17 0
7 14 15 -16 17 0
7 14 -15 16 17 0
7 14 -15 -16 -17 0
7 -14 15 16 17 0
7 -14 15 -16 -17 0
7 -14 -15 16 -17 0
7 -14 -15 -16 17 0
-7 14 15 16 17 0
-7 14 15 -16 -17 0
-7 14 -15 16 -17 0
-7 14 -15 -16 17 0
-7 -14 15 16 -17 0
-7 -14 15 -16 17 0
-7 -14 -15 16 17 0
-7 -14 -15 -16 -17 0
2 18 19 20 21 -22 0
2 18 19 20 -21 22 0
2 18 19 -20 21 22 0
2 18 19 -20 -21 -22 0
2 18 -19 20 21 22 0
2 18 -19 20 -21 -22 0
2 18 -19 -20 21 -22 0
2 18 -19 -20 -21 22 0
2 -18 19 20 21 22 0
2 -18 19 20 -21 -22 0
2 -18 19 -20 21 -22 0
2 -18 19 -20 -21 22 0
2 -18 -19 20 21 -22 0
2 -18 -19 20 -21 22 0
2 -18 -19 -20 21 22 0
2 -18 -19 -20 -21 -22 0
-2 18 19 20 21 22 0
-2 18 19 20 -21 -22 0
-2 18 19 -20 21 -22 0
-2 18 19 -20 -21 22 0
-2 18 -19 20 21 -22 0
-2 18 -19 20 -21 22 0
-2 18 -19 -20 21 22 0
-2 18 -19 -20 -21 -22 0
-2 -18 19 20 21 -22 0
-2 -18 19 20 -21 22 0
-2 -18 19 -20 21 22 0
-2 -18 19 -20 -21 -22 0
-2 -18 -19 20 21 22 0
-2 -18 -19 20 -21 -22 0
-2 -18 -19 -20 21 -22 0
-2 -18 -19 -20 -21 22 0
23 24 -25 0
23 -24 25 0
-23 24 25 0
-23 -24 -25 0
14 18 26 -27 0
14 18 -26 27 0
14 -18 26 27 0
14 -18 -26 -27 0
-14 18 26 27 0
-14 18 -26 -27 0
-14 -18 26 -27 0
-14 -18 -26 27 0
-8 0
5 28 29 30 -31 0
5 28 29 -30 31 0
5 28 -29 30 31 0
5 28 -29 -30 -31 0
5 -28 29 30 31 0
5 -28 29 -30 -31 0
5 -28 -29 30 -31 0
5 -28 -29 -30 31 0
-5 28 29 30 31 0
-5 28 29 -30 -31 0
-5 28 -29 30 -31 0
-5 28 -29 -30 31 0
-5 -28 29 30 -31 0
-5 -28 29 -30 31 0
-5 -28 -29 30 31 0
-5 -28 -29 -30 -31 0
3 -32 0
-3 32 0
11 15 19 33 34 35 -36 0
11 15 19 33 34 -35 36 0
11 15 19 33 -34 35 36 0
11 15 19 33 -34 -35 -36 0
11 15 19 -33 34 35 36 0
11 15 19 -33 34 -35 -36 0
11 15 19 -33 -34 35 -36 0
11 15 19 -33 -34 -35 36 0
11 15 -19 33 34 35 36 0
11 15 -19 33 34 -35 -36 0
11 15 -19 33 -34 35 -36 0
11 15 -19 33 -34 -35 36 0
11 15 -19 -33 34 35 -36 0
11 15 -19 -33 34 -35 36 0
11 15 -19 -33 -34 35 36 0
11 15 -19 -33 -34 -35 -36 0
11 -15 19 33 34 35 36 0
11 -15 19 33 34 -35 -36 0
11 -15 19 33 -34 35 -36 0
11 -15 19 33 -34 -35 36 0
11 -15 19 -33 34 35 -36 0
11 -15 19 -33 34 -35 36 0
11 -15 19 -33 -34 35 36 0
11 -15 19 -33 -34 -35 -36 0
11 -15 -19 33 34 35 -36 0
11 -15 -19 33 34 -35 36 0
11 -15 -19 33 -34 35 36 0
11 -15 -19 33 -34 -35 -36 0
11 -15 -19 -33 34 35 36 0
11 -15 -19 -33 34 -35 -36 0
11 -15 -19 -33 -34 35 -36 0
11 -15 -19 -33 -34 -35 36 0
-11 15 19 33 34 35 36 0
-11 15 19 33 34 -35 -36 0
-11 15 19 33 -34 35 -36 0
-11 15 19 33 -34 -35 36 0
-11 15 19 -33 34 35 -36 0
-11 15 19 -33 34 -35 36 0
-11 15 19 -33 -34 35 36 0
-11 15 19 -33 -34 -35 -36 0
-11 15 -19 33 34 35 -36 0
-11 15 -19 33 34 -35 36 0
-11 15 -19 33 -34 35 36 0
-11 15 -19 33 -34 -35 -36 0
-11 15 -19 -33 34 35 36 0
-11 15 -19 -33 34 -35 -36 0
-11 15 -19 -33 -34 35 -36 0
-11 15 -19 -33 -34 -35 36 0
-11 -15 19 33 34 35 -36 0
-11 -15 19 33 34 -35 36 0
-11 -15 19 33 -34 35 36 0
-11 -15 19 33 -34 -35 -36 0
-11 -15 19 -33 34 35 36 0
-11 -15 19 -33 34 -35 -36 0
-11 -15 19 -33 -34 35 -36 0
-11 -15 19 -33 -34 -35 36 0
-11 -15 -19 33 34 35 36 0
-11 -15 -19 33 34 -35 -36 0
-11 -15 -19 33 -34 35 -36 0
-11 -15 -19 33 -34 -35 36 0
-11 -15 -19 -33 34 35 -36 0
-11 -15 -19 -33 34 -35 36 0
-11 -15 -19 -33 -34 35 36 0
-11 -15 -19 -33 -34 -35 -36 0
6 20 28 33 -37 0
6 20 28 -33 37 0
6 20 -28 33 37 0
6 20 -28 -33 -37 0
6 -20 28 33 37 0
6 -20 28 -33 -37 0
6 -20 -28 33 -37 0
6 -20 -28 -33 37 0
-6 20 28 33 37 0
-6 20 28 -33 -37 0
-6 20 -28 33 -37 0
-6 20 -28 -33 37 0
-6 -20 28 33 -37 0
-6 -20 28 -33 37 0
-6 -20 -28 33 37 0
-6 -20 -28 -33 -37 0
4 16 21 23 29 32 34 -38 0
4 16 21 23 29 32 -34 38 0
4 16 21 23 29 -32 34 38 0
4 16 21 23 29 -32 -34 -38 0
4 16 21 23 -29 32 34 38 0
4 16 21 23 -29 32 -34 -38 0
4 16 21 23 -29 -32 34 -38 0
4 16 21 23 -29 -32 -34 38 0
4 16 21 -23 29 32 34 38 0
4 16 21 -23 29 32 -34 -38 0
4 16 21 -23 29 -32 34 -38 0
4 16 21 -23 29 -32 -34 38 0
4 16 21 -23 -29 32 34 -38 0
4 16 21 -23 -29 32 -34 38 0
4 16 21 -23 -29 -32 34 38 0
4 16 21 -23 -29 -32 -34 -38 0
4 16 -21 23 29 32 34 38 0
4 16 -21 23 29 32 -34 -38 0
4 16 -21 23 29 -32 34 -38 0
4 16 -21 23 29 -32 -34 38 0
4 16 -21 23 -29 32 34 -38 0
4 16 -21 23 -29 32 -34 38 0
4 16 -21 23 -29 -32 34 38 0
4 16 -21 23 -29 -32 -34 -38 0
4 16 -21 -23 29 32 34 -38 0
4 16 -21 -23 29 32 -34 38 0
4 16 -21 -23 29 -32 34 38 0
4 16 -21 -23 29 -32 -34 -38 0
4 16 -21 -23 -29 32 34 38 0
4 16 -21 -23 -29 32 -34 -38 0
4 16 -21 -23 -29 -32 34 -38 0
4 16 -21 -23 -29 -32 -34 38 0
4 -16 21 23 29 32 34 38 0
4 -16 21 23 29 32 -34 -38 0
4 -16 21 23 29 -32 34 -38 0
4 -16 21 23 29 -32 -34 38 0
4 -16 21 23 -29 32 34 -38 0
4 -16 21 23 -29 32 -34 38 0
4 -16 21 23 -29 -32 34 38 0
4 -16 21 23 -29 -32 -34 -38 0
4 -16 21 -23 29 32 34 -38 0
4 -16 21 -23 29 32 -34 38 0
4 -16 21 -23 29 -32 34 38 0
4 -16 21 -23 29 -32 -34 -38 0
4 -16 21 -23 -29 32 34 38 0
4 -16 21 -23 -29 32 -34 -38 0
4 -16 21 -23 -29 -32 34 -38 0
4 -16 21 -23 -29 -32 -34 38 0
4 -16 -21 23 29 32 34 -38 0
4 -16 -21 23 29 32 -34 38 0
4 -16 -21 23 29 -32 34 38 0
4 -16 -21 23 29 -32 -34 -38 0
4 -16 -21 23 -29 32 34 38 0
4 -16 -21 23 -29 32 -34 -38 0
4 -16 -21 23 -29 -32 34 -38 0
4 -16 -21 23 -29 -32 -34 38 0
4 -16 -21 -23 29 32 34 38 0
4 -16 -21 -23 29 32 -34 -38 0
4 -16 -21 -23 29 -32 34 -38 0
4 -16 -21 -23 29 -32 -34 38 0
4 -16 -21 -23 -29 32 34 -38 0
4 -16 -21 -23 -29 32 -34 38 0
4 -16 -21 -23 -29 -32 34 38 0
4 -16 -21 -23 -29 -32 -34 -38 0
-4 16 21 23 29 32 34 38 0
-4 16 21 23 29 32 -34 -38 0
-4 16 21 23 29 -32 34 -38 0
-4 16 21 23 29 -32 -34 38 0
-4 16 21 23 -29 32 34 -38 0
-4 16 21 23 -29 32 -34 38 0
-4 16 21 23 -29 -32 34 38 0
-4 16 21 23 -29 -32 -34 -38 0
-4 16 21 -23 29 32 34 -38 0
-4 16 21 -23 29 32 -34 38 0
-4 16 21 -23 29 -32 34 38 0
-4 16 21 -23 29 -32 -34 -38 0
-4 16 21 -23 -29 32 34 38 0
-4 16 21 -23 -29 32 -34 -38 0
-4 16 21 -23 -29 -32 34 -38 0
-4 16 21 -23 -29 -32 -34 38 0
-4 16 -21 23 29 32 34 -38 0
-4 16 -21 23 29 32 -34 38 0
-4 16 -21 23 29 -32 34 38 0
-4 16 -21 23 29 -32 -34 -38 0
-4 16 -21 23 -29 32 34 38 0
-4 16 -21 23 -29 32 -34 -38 0
-4 16 -21 23 -29 -32 34 -38 0
-4 16 -21 23 -29 -32 -34 38 0
-4 16 -21 -23 29 32 34 38 0
-4 16 -21 -23 29 32 -34 -38 0
-4 16 -21 -23 29 -32 34 -38 0
-4 16 -21 -23 29 -32 -34 38 0
-4 16 -21 -23 -29 32 34 -38 0
-4 16 -21 -23 -29 32 -34 38 0
-4 16 -21 -23 -29 -32 34 38 0
-4 16 -21 -23 -29 -32 -34 -38 0
-4 -16 21 23 29 32 34 -38 0
-4 -16 21 23 29 32 -34 38 0
-4 -16 21 23 29 -32 34 38 0
-4 -16 21 23 29 -32 -34 -38 0
-4 -16 21 23 -29 32 34 38 0
-4 -16 21 23 -29 32 -34 -38 0
-4 -16 21 23 -29 -32 34 -38 0
-4 -16 21 23 -29 -32 -34 38 0
-4 -16 21 -23 29 32 34 38 0
-4 -16 21 -23 29 32 -34 -38 0
-4 -16 21 -23 29 -32 34 -38 0
-4 -16 21 -23 29 -32 -34 38 0
-4 -16 21 -23 -29 32 34 -38 0
-4 -16 21 -23 -29 32 -34 38 0
-4 -16 21 -23 -29 -32 34 38 0
-4 -16 21 -23 -29 -32 -34 -38 0
-4 -16 -21 23 29 32 34 38 0
-4 -16 -21 23 29 32 -34 -38 0
-4 -16 -21 23 29 -32 34 -38 0
-4 -16 -21 23 29 -32 -34 38 0
-4 -16 -21 23 -29 32 34 -38 0
-4 -16 -21 23 -29 32 -34 38 0
-4 -16 -21 23 -29 -32 34 38 0
-4 -16 -21 23 -29 -32 -34 -38 0
-4 -16 -21 -23 29 32 34 -38 0
-4 -16 -21 -23 29 32 -34 38 0
-4 -16 -21 -23 29 -32 34 38 0
-4 -16 -21 -23 29 -32 -34 -38 0
-4 -16 -21 -23 -29 32 34 38 0
-4 -16 -21 -23 -29 32 -34 -38 0
-4 -16 -21 -23 -29 -32 34 -38 0
-4 -16 -21 -23 -29 -32 -34 38 0
30 39 -40 0
30 -39 40 0
-30 39 40 0
-30 -39 -40 0
12 24 35 -37 0
12 24 -35 37 0
12 -24 35 37 0
12 -24 -35 -37 0
-12 24 35 37 0
-12 24 -35 -37 0
-12 -24 35 -37 0
-12 -24 -35 37 0
22 26 38 -39 0
22 26 -38 39 0
22 -26 38 39 0
22 -26 -38 -39 0
-22 26 38 39 0
-22 26 -38 -39 0
-22 -26 38 -39 0
-22 -26 -38 39 0
9 -36 0
-9 36 0
10 13 17 25 27 -31 0
10 13 17 25 -27 31 0
10 13 17 -25 27 31 0
10 13 17 -25 -27 -31 0
10 13 -17 25 27 31 0
10 13 -17 25 -27 -31 0
10 13 -17 -25 27 -31 0
10 13 -17 -25 -27 31 0
10 -13 17 25 27 31 0
10 -13 17 25 -27 -31 0
10 -13 17 -25 27 -31 0
10 -13 17 -25 -27 31 0
10 -13 -17 25 27 -31 0
10 -13 -17 25 -27 31 0
10 -13 -17 -25 27 31 0
10 -13 -17 -25 -27 -31 0
-10 13 17 25 27 31 0
-10 13 17 25 -27 -31 0
-10 13 17 -25 27 -31 0
-10 13 17 -25 -27 31 0
-10 13 -17 25 27 -31 0
-10 13 -17 25 -27 31 0
-10 13 -17 -25 27 31 0
-10 13 -17 -25 -27 -31 0
-10 -13 17 25 27 -31 0
-10 -13 17 25 -27 31 0
-10 -13 17 -25 27 31 0
-10 -13 17 -25 -27 -31 0
-10 -13 -17 25 27 31 0
-10 -13 -17 25 -27 -31 0
-10 -13 -17 -25 27 -31 0
-10 -13 -17 -25 -27 31 0
-40 0